50
646
4
93
16
31
55
0 2
0 3
0 10
0 11
0 12
0 13
0 15
0 17
0 22
0 23
0 25
0 27
0 28
0 29
0 31
0 32
0 33
0 34
0 35
0 36
0 37
0 39
0 43
0 44
0 49
1 2
1 3
1 4
1 8
1 10
1 12
1 13
1 14
1 15
1 16
1 17
1 19
1 22
1 23
1 24
1 25
1 27
1 30
1 32
1 34
1 35
1 40
1 43
1 47
1 48
1 49
2 5
2 6
2 8
2 9
2 11
2 12
2 13
2 15
2 17
2 19
2 20
2 25
2 26
2 28
2 31
2 36
3 5
3 6
3 7
3 8
3 12
3 13
3 20
3 24
3 25
3 27
3 31
3 33
3 35
3 36
3 37
3 38
3 40
3 44
3 45
3 46
3 48
3 49
4 6
4 7
4 8
4 9
4 12
4 13
4 16
4 18
4 19
4 20
4 21
4 22
4 26
4 27
4 28
4 29
4 30
4 33
4 34
4 37
4 38
4 39
4 41
4 42
4 43
4 44
4 46
4 48
4 49
5 6
5 7
5 11
5 13
5 14
5 15
5 16
5 20
5 21
5 22
5 23
5 24
5 25
5 26
5 30
5 31
5 32
5 33
5 34
5 35
5 37
5 38
5 39
5 40
5 41
5 42
5 43
5 44
5 45
6 8
6 9
6 10
6 12
6 13
6 18
6 19
6 22
6 24
6 25
6 31
6 32
6 33
6 36
6 39
6 40
6 41
6 42
6 44
6 46
6 47
6 48
6 49
7 12
7 13
7 18
7 19
7 20
7 22
7 28
7 31
7 32
7 35
7 38
7 39
7 40
7 42
7 44
7 46
7 48
7 49
8 11
8 12
8 13
8 14
8 15
8 19
8 22
8 23
8 25
8 27
8 28
8 29
8 30
8 31
8 33
8 34
8 41
8 43
8 46
8 49
9 10
9 11
9 15
9 16
9 17
9 18
9 19
9 20
9 22
9 23
9 24
9 25
9 26
9 27
9 29
9 30
9 31
9 36
9 37
9 39
9 41
9 42
9 43
9 45
9 49
10 14
10 15
10 16
10 21
10 24
10 25
10 26
10 28
10 29
10 31
10 32
10 33
10 34
10 35
10 36
10 37
10 38
10 40
10 42
10 44
10 46
10 48
10 49
11 12
11 16
11 18
11 19
11 20
11 23
11 24
11 25
11 26
11 31
11 32
11 33
11 35
11 37
11 39
11 40
11 41
11 42
11 43
11 44
11 45
11 46
11 47
11 49
12 13
12 16
12 19
12 20
12 21
12 23
12 24
12 25
12 27
12 29
12 30
12 32
12 35
12 36
12 37
12 38
12 39
12 40
12 42
12 45
12 48
12 49
13 16
13 20
13 21
13 26
13 27
13 30
13 33
13 34
13 38
13 40
13 41
13 42
13 44
13 45
13 46
13 47
13 48
14 15
14 18
14 19
14 20
14 21
14 27
14 28
14 29
14 32
14 33
14 34
14 36
14 38
14 44
14 45
14 46
15 16
15 19
15 20
15 21
15 25
15 29
15 31
15 33
15 35
15 37
15 38
15 40
15 42
15 43
15 46
15 49
16 17
16 19
16 22
16 26
16 27
16 28
16 30
16 31
16 32
16 33
16 35
16 39
16 41
16 44
16 49
17 19
17 20
17 22
17 24
17 25
17 26
17 28
17 30
17 32
17 34
17 36
17 40
17 41
17 42
17 46
18 19
18 20
18 22
18 23
18 25
18 26
18 27
18 29
18 31
18 34
18 35
18 36
18 39
18 40
18 42
18 43
18 44
18 45
18 47
18 48
18 49
19 20
19 21
19 22
19 26
19 32
19 33
19 34
19 35
19 38
19 41
19 43
19 44
19 45
19 48
19 49
20 23
20 25
20 27
20 32
20 34
20 35
20 36
20 38
20 39
20 40
20 41
20 42
20 47
21 24
21 27
21 29
21 30
21 31
21 32
21 37
21 40
21 43
21 45
21 46
21 48
21 49
22 23
22 25
22 30
22 31
22 33
22 34
22 37
22 40
22 42
22 43
22 44
22 46
22 48
23 26
23 27
23 28
23 32
23 33
23 36
23 42
23 44
23 48
23 49
24 25
24 27
24 28
24 29
24 32
24 37
24 39
24 40
24 41
24 42
24 44
24 45
24 48
24 49
25 26
25 27
25 30
25 31
25 34
25 35
25 36
25 40
25 42
25 43
25 44
25 45
25 46
25 48
25 49
26 28
26 29
26 30
26 31
26 32
26 33
26 34
26 35
26 41
26 42
26 45
26 48
26 49
27 31
27 32
27 33
27 34
27 38
27 39
27 41
27 42
27 45
27 46
27 47
27 49
28 33
28 34
28 37
28 39
28 41
28 42
28 44
28 46
28 47
28 48
28 49
29 30
29 31
29 34
29 35
29 36
29 38
29 41
29 45
29 46
29 48
30 32
30 33
30 36
30 40
30 42
30 43
30 44
30 46
30 48
30 49
31 33
31 34
31 37
31 38
31 39
31 40
31 41
31 42
31 44
31 45
31 46
31 47
31 49
32 33
32 34
32 36
32 37
32 38
32 39
32 40
32 43
32 46
32 47
33 34
33 35
33 36
33 37
33 38
33 41
33 42
33 45
33 47
33 48
34 36
34 38
34 39
34 40
34 41
34 42
34 43
34 45
34 46
34 47
34 48
35 41
35 49
36 38
36 39
36 40
36 41
36 43
36 44
36 46
36 47
36 49
37 39
37 41
37 42
37 43
37 44
37 47
37 48
37 49
38 39
38 41
38 43
38 45
38 46
39 41
39 42
39 43
39 44
39 47
39 48
40 41
40 42
40 44
40 45
40 49
41 43
41 45
41 46
42 44
42 46
43 45
43 46
44 45
44 47
44 48
45 47
45 49
46 48
46 49
47 48
48 49
12 40 37 11 15 17 36 46 27 9 39 48 45 25 43
23 28 35 1 3 30 7 14 29 38 33 20 0 13 49
34 31 24 44 10 47 42 19 41 18 5 16 2 22 32
8 26 4 6 21
